p edge 75 278
e 1 9
e 1 17
e 1 21
e 1 29
e 1 54
e 1 57
e 1 68
e 2 19
e 2 31
e 2 38
e 2 42
e 2 44
e 2 49
e 2 53
e 2 59
e 2 60
e 2 62
e 2 68
e 3 38
e 3 50
e 3 58
e 3 60
e 3 62
e 3 68
e 3 73
e 3 74
e 4 7
e 4 22
e 4 34
e 4 54
e 5 10
e 5 36
e 5 38
e 5 40
e 5 43
e 5 50
e 5 57
e 5 73
e 6 13
e 6 29
e 6 31
e 6 48
e 6 54
e 6 58
e 6 63
e 7 28
e 7 29
e 7 39
e 7 42
e 7 44
e 7 47
e 7 58
e 7 64
e 7 67
e 8 10
e 8 15
e 8 35
e 8 51
e 8 74
e 9 10
e 9 13
e 9 33
e 9 42
e 9 50
e 9 54
e 10 13
e 10 50
e 10 56
e 10 60
e 10 62
e 11 21
e 11 31
e 11 39
e 11 47
e 11 51
e 11 64
e 12 16
e 12 17
e 12 51
e 13 19
e 13 23
e 13 31
e 13 34
e 13 45
e 13 57
e 13 58
e 13 75
e 14 16
e 14 30
e 14 34
e 14 37
e 15 19
e 15 35
e 15 41
e 15 71
e 15 75
e 16 19
e 16 20
e 16 35
e 16 37
e 16 45
e 16 61
e 17 23
e 17 53
e 17 57
e 17 65
e 17 74
e 18 26
e 18 32
e 18 33
e 18 45
e 18 53
e 18 69
e 18 70
e 19 22
e 19 34
e 19 43
e 19 55
e 19 58
e 20 29
e 20 37
e 20 42
e 20 45
e 20 46
e 20 47
e 20 57
e 20 63
e 20 67
e 21 27
e 21 29
e 21 30
e 21 34
e 21 36
e 21 47
e 21 49
e 21 54
e 21 57
e 21 61
e 21 74
e 22 46
e 23 24
e 23 25
e 23 38
e 23 43
e 23 54
e 23 59
e 23 60
e 23 61
e 23 70
e 24 38
e 25 30
e 25 46
e 25 49
e 25 74
e 26 28
e 26 40
e 26 43
e 26 65
e 26 69
e 26 74
e 27 31
e 27 75
e 28 40
e 28 51
e 28 63
e 28 68
e 29 30
e 29 33
e 29 44
e 29 46
e 29 49
e 29 50
e 29 52
e 29 57
e 29 59
e 29 65
e 29 69
e 30 31
e 30 34
e 30 42
e 30 47
e 31 68
e 31 75
e 32 35
e 32 41
e 32 53
e 32 67
e 33 34
e 33 36
e 33 37
e 33 39
e 33 49
e 33 55
e 33 56
e 33 65
e 34 35
e 34 59
e 34 70
e 34 73
e 34 75
e 35 38
e 35 43
e 35 44
e 35 61
e 36 49
e 36 55
e 36 64
e 36 70
e 37 54
e 37 70
e 37 71
e 38 67
e 39 54
e 40 49
e 40 51
e 40 58
e 40 65
e 40 66
e 41 44
e 41 70
e 41 75
e 42 58
e 42 59
e 42 60
e 42 63
e 42 65
e 42 68
e 43 44
e 43 47
e 44 45
e 44 54
e 45 50
e 45 51
e 45 53
e 45 57
e 46 50
e 46 66
e 46 68
e 46 70
e 46 75
e 47 61
e 47 64
e 47 66
e 48 70
e 48 74
e 49 61
e 49 66
e 49 70
e 50 57
e 50 69
e 51 61
e 51 64
e 51 67
e 51 71
e 52 55
e 53 63
e 53 66
e 53 72
e 53 74
e 54 57
e 54 72
e 54 74
e 55 69
e 55 72
e 56 69
e 56 71
e 57 66
e 58 70
e 59 69
e 59 74
e 60 68
e 61 66
e 62 64
e 63 72
e 64 75
e 65 68
e 67 70
e 72 73
